c IN1002 Introduction to Algorithms!
c top secret ID string d1d5fe03c32
c 12 variables and 50 clauses
p cnf 12 50
c each line is a clause, 0 marks the end
-12 -9 0
2 1 9 0
-5 1 6 0
12 5 10 0
-9 9 -9 0
8 6 2 0
2 -1 -7 0
5 7 7 0
5 -6 6 0
-5 -2 8 0
6 -2 -12 0
-5 -11 3 0
-7 -4 -9 0
12 -2 8 0
11 1 7 0
-9 -3 0
6 -12 -12 0
-12 5 8 0
9 -1 -9 0
2 7 3 0
-1 2 -10 0
-1 9 -9 0
-10 -10 1 0
-5 -9 11 0
-7 -11 0
12 -5 11 0
1 -12 11 0
2 -12 6 0
-1 11 -8 0
4 -12 0
-6 -12 2 0
-4 1 -1 0
1 3 3 0
-11 -12 6 0
-10 -7 9 0
4 -8 -9 0
2 7 -9 0
2 -4 -7 0
-5 9 -9 0
2 5 0
2 8 7 0
-8 -7 -4 0
5 8 -12 0
-5 10 -12 0
-12 -11 -7 0
9 5 -1 0
-10 -6 -6 0
-7 10 4 0
1 -5 3 0
6 9 -8 0
c Good luck!
